CMD:
./solvers/bin/cadical --plain --no-reduce -t 1600 ./data/cnfs//qspiflash_qflexpress_divfive-p122/qspiflash_qflexpress_divfive-p122.91.cnf

c --- [ banner ] -------------------------------------------------------------
c 
c CaDiCaL SAT Solver
c Copyright (c) 2016-2024
c A. Biere, M. Fleury, N. Froleyks, K. Fazekas, F. Pollitt, T. Faller
c JKU Linz, University of Freiburg, TU Wien
c 
c Version 2.1.3 5296d3d2a9bf48c154ab2acb5e44625776d821bf
c g++ (Gentoo 12.3.1_p20230526 p2) 12.3.1 20230526 -Wall -Wextra -O3 -DNDEBUG
c Sat Aug 9 07:26:21 PDT 2025 Linux cedar2.int.cedar.computecanada.ca 5.14.0-362.24.2.el9_3.x86_64 x86_64
c 
c --- [ limit ] --------------------------------------------------------------
c 
c setting time limit to 1600 seconds real time (due to '-t 1600')
c 
c --- [ parsing input ] ------------------------------------------------------
c 
c reading DIMACS file from './data/cnfs//qspiflash_qflexpress_divfive-p122/qspiflash_qflexpress_divfive-p122.91.cnf'
c opening file to read './data/cnfs//qspiflash_qflexpress_divfive-p122/qspiflash_qflexpress_divfive-p122.91.cnf'
c found 'p cnf 241953 705832' header
c parsed 705832 clauses in 0.11 seconds process time
c 
c --- [ options ] ------------------------------------------------------------
c 
c   --compact=false                (different from default 'true')
c   --decompose=false              (different from default 'true')
c   --deduplicate=false            (different from default 'true')
c   --elim=false                   (different from default 'true')
c   --probe=false                  (different from default 'true')
c   --reduce=false                 (different from default 'true')
c   --subsume=false                (different from default 'true')
c   --ternary=false                (different from default 'true')
c   --transred=false               (different from default 'true')
c   --vivify=false                 (different from default 'true')
c 
c --- [ solving ] ------------------------------------------------------------
c 
c time measured in process time since initialization
c 
c  seconds   reductions  redundant  irredundant
c          MB    restarts       trail       variables
c           level   conflicts       glue          remaining
c 
c *  0.11 111  0 0   0    0    0  0% 0 689279 231218 96%
c {  0.17 115  0 0   0    0    0  0% 0 689279 231218 96%
c i  0.17 115  1 0   0    1    0  5% 0 689279 231212 96%
c i  0.28 116 197 0   2  415  327 21% 51 689279 231211 96%
c i  0.29 116 197 0   2  446  353 21% 49 689279 230582 95%
c i  0.30 116 193 0   2  463  366 21% 48 689279 230510 95%
c i  0.30 116 191 0   2  468  370 21% 48 689279 230509 95%
c i  0.31 116 185 0   2  531  428 22% 42 689279 230466 95%
c i  0.34 117 144 0   2  906  758 20% 27 689279 230465 95%
c }  0.35 117 138 0   2 1007  853 20% 24 689279 230465 95%
c [  0.35 117  0 0   2 1007  853  0% 0 689279 230465 95%
c O  0.39 117 1228 0   2 1008  854 95% 72 689279 230465 95%
c i  0.39 117 1222 0   2 1009  854 95% 36 689279 229932 95%
c i  0.39 117 1197 0   2 1046  886 92% 24 689279 229703 95%
c i  0.39 117 1189 0   2 1055  892 91% 26 689279 229619 95%
c i  0.40 117 1179 0   2 1064  899 90% 24 689279 228624 94%
c i  0.40 117 1177 0   2 1066  900 90% 24 689279 228618 94%
c i  0.40 117 1167 0   2 1079  911 90% 21 689279 228306 94%
c i  0.40 117 1165 0   2 1082  913 89% 21 689279 228143 94%
c i  0.40 117 1157 0   2 1091  919 89% 21 689279 223131 92%
c 
c  seconds     reductions  redundant   irredundant
c          MB      restarts       trail        variables
c            level    conflicts       glue           remaining
c 
c i  0.40 117 1150 0   2 1100  923 88% 20 689279 223079 92%
c i  0.40 117 1148 0   2 1102  924 88% 19 689279 219721 91%
c i  0.40 117 1147 0   2 1103  924 88% 19 689279 219705 91%
c i  0.40 117 1140 0   2 1114  929 88% 18 689279 219570 91%
c i  0.40 117 1134 0   2 1122  935 87% 17 689279 219263 91%
c i  0.40 117 1131 0   2 1126  938 87% 16 689279 219178 91%
c i  0.40 117 1129 0   2 1129  940 87% 16 689279 219026 91%
c i  0.41 117 1118 0   2 1143  951 86% 14 689279 217679 90%
c i  0.41 117 1112 0   2 1150  956 86% 14 689279 213861 88%
c i  0.41 117 1102 0   2 1159  963 85% 13 689279 213779 88%
c i  0.41 117 1090 0   2 1170  972 85% 12 689279 213742 88%
c i  0.41 117 1081 0   2 1180  981 84% 11 689279 213725 88%
c i  0.41 117 1079 0   2 1182  982 84% 11 689279 213717 88%
c i  0.42 117 1059 0   2 1205 1001 83% 10 689279 213681 88%
c i  0.42 117 1050 0   2 1216 1009 82% 10 689279 213661 88%
c i  0.42 117 1049 0   2 1217 1009 82% 10 689279 213657 88%
c i  0.42 117 1034 0   2 1238 1027 81% 9 689279 213638 88%
c i  0.43 117 1019 0   2 1262 1040 80% 9 689279 213523 88%
c i  0.43 117 1002 0   2 1294 1065 79% 8 689279 213519 88%
c i  0.44 117 986 0   2 1329 1092 78% 8 689279 213507 88%
c 
c  seconds    reductions  redundant  irredundant
c          MB     restarts       trail       variables
c            level   conflicts       glue          remaining
c 
c i  0.45 117 974 0   2 1360 1120 77% 7 689279 213493 88%
c i  0.45 117 972 0   2 1365 1124 77% 7 689279 213419 88%
c i  0.47 117 943 0   2 1462 1201 75% 6 689279 213392 88%
c i  0.50 117 918 0   2 1580 1296 73% 6 689279 213378 88%
c i  0.50 117 916 0   2 1592 1305 73% 6 689279 213355 88%
c i  0.51 117 908 0   2 1640 1345 72% 6 689279 213354 88%
c i  0.53 117 894 0   2 1735 1424 71% 6 689279 213348 88%
c i  0.56 117 879 0   2 1845 1517 70% 6 689279 213343 88%
c i  0.56 117 876 0   2 1867 1537 69% 6 689279 213339 88%
c i  0.58 117 868 0   2 1936 1598 69% 5 689279 213228 88%
c i  0.58 117 864 0   2 1964 1618 68% 5 689279 213227 88%
c i  0.59 117 862 0   2 1981 1630 68% 5 689279 213223 88%
c i  0.59 117 862 0   2 1985 1633 68% 5 689279 213210 88%
c i  0.65 117 682 0   3 2344 1938 56% 6 689279 212428 88%
c ]  0.66 117 651 0   3 2408 1989 55% 6 689279 212394 88%
c 0  0.66 117 651 0   3 2408 1989 55% 6 689279 212394 88%
c 
c --- [ result ] -------------------------------------------------------------
c 
s UNSATISFIABLE
c 
c --- [ run-time profiling ] -------------------------------------------------
c 
c process time taken by individual solving procedures
c (percentage relative to process time for solving)
c 
c         0.55   99.98% search
c         0.32   57.61% stable
c         0.17   31.60% unstable
c         0.11   20.17% parse
c         0.06   10.75% lucky
c         0.00    0.00% simplify
c   =================================
c         0.55   83.12% solve
c 
c last line shows process time for solving
c (percentage relative to total process time)
c 
c --- [ statistics ] ---------------------------------------------------------
c 
c chronological:               990        41.11 %  of conflicts
c conflicts:                  2408      4356.12    per second
c decisions:                  6286     11371.49    per second
c fixed:                     29558        12.22 %  of all variables
c learned:                    2239        92.98 %  per conflict
c learned_lits:              68659       100.00 %  learned literals
c minimized:                     0         0.00 %  learned literals
c shrunken:                   8945        13.03 %  learned literals
c minishrunken:               5924         8.63 %  learned literals
c otfs:                         38         1.58 %  of conflict
c propagations:           10185420        18.43 M  per second
c rephased:                      1      2408.00    interval
c restarts:                      3       802.67    interval
c stabilizing:                   1        58.18 %  of conflicts
c subsumed:                    199         0.03 %  of all clauses
c strengthened:                 38         0.01 %  of all clauses
c 
c seconds are measured in process time for solving
c 
c --- [ resources ] ----------------------------------------------------------
c 
c total process time since initialization:         0.67    seconds
c total real time since initialization:            0.67    seconds
c maximum resident set size of process:          116.43    MB
c 
c --- [ shutting down ] ------------------------------------------------------
c 
c exit 20
